job_count = 16 ;
duration = [|14, 6, 7|29, 14, 6|17, 8, 3|21, 5, 4|23, 17, 4|24, 15, 3|3, 19, 8|27, 14, 9|11, 11, 5|12, 13, 4|12, 10, 3|24, 10, 2|13, 4, 8|4, 15, 3|19, 14, 4|10, 19, 7|] ;
machine_count = 3 ;
cost = [|17, 21, 48|16, 24, 43|19, 29, 41|13, 38, 32|13, 35, 35|13, 38, 35|12, 25, 39|13, 23, 47|15, 30, 38|13, 28, 55|14, 24, 51|16, 29, 32|14, 25, 57|11, 37, 58|15, 27, 51|10, 36, 37|] ;
deadline = [36, 36, 36, 36, 36, 36, 36, 36, 36, 36, 36, 36, 36, 36, 36, 36] ;
release = [0, 0, 0, 0, 0, 0, 0, 0, 0, 0, 0, 0, 0, 0, 0, 0] ;
resource = [|1, 1, 1|6, 6, 6|4, 4, 4|2, 2, 2|7, 7, 7|2, 2, 2|1, 1, 1|9, 9, 9|4, 4, 4|6, 6, 6|8, 8, 8|1, 1, 1|3, 3, 3|9, 9, 9|7, 7, 7|4, 4, 4|] ;
capacities = [10, 10, 10] ;
